1610382600
1610348400
1610434800
1610469000
1610521200
1610555400
1610607600
1610641800
1610694000
1610728200
1610953200
1610987400
1611039600
1611073800
1611126000
1611160200
1611212400
1611246600
1611298800
1611331200
1611558000
1611592200
1611644400
1611678600
1611765000
1611730800
1611816180
1611851400
1611903600
1611937800
